(set-logic HORN)
(declare-fun !inv0 (Int (Array Int Int) (Array Int Int) Int ) Bool)
(declare-fun !inv1 (Int (Array Int Int) (Array Int Int) Int ) Bool)
(assert (forall ((SIZE@0 Int)(b@0 (Array Int Int))(a@0 (Array Int Int))(i@1 Int)) (=> (and (> |SIZE@0| 0) (= |i@1| 0)) (!inv0 |SIZE@0| |a@0| |b@0| |i@1|))))
(assert (forall ((SIZE@0 Int)(a@0 (Array Int Int))(b@0 (Array Int Int))(i@0 Int)(i@1 Int)) (=> (and (!inv0 |SIZE@0| |a@0| |b@0| |i@0|) (not (< |i@0| |SIZE@0|)) (= |i@1| 0)) (!inv1 |SIZE@0| |a@0| |b@0| |i@1|))))
(assert (forall ((SIZE@0 Int)(a@0 (Array Int Int))(b@0 (Array Int Int))(i@0 Int)(a@1 (Array Int Int))(b@1 (Array Int Int))(i@1 Int)) (=> (and (!inv0 |SIZE@0| |a@0| |b@0| |i@0|) (< |i@0| |SIZE@0|) (= |a@1| (store |a@0| |i@0| |i@0|)) (= |b@1| (store |b@0| |i@0| |i@0|)) (= |i@1| (+ |i@0| 1))) (!inv0 |SIZE@0| |a@1| |b@1| |i@1|))))
(assert (forall ((SIZE@0 Int)(a@0 (Array Int Int))(b@0 (Array Int Int))(i@0 Int)) (=> (and (!inv1 |SIZE@0| |a@0| |b@0| |i@0|) (not (< |i@0| |SIZE@0|)) (not (forall ((l@0 Int)) (=> (and (<= 0 |l@0|) (< |l@0| |SIZE@0|)) (or (= (select |a@0| |l@0|) (select |b@0| |l@0|)) (= (select |b@0| |l@0|) (* (select |a@0| |l@0|) (select |a@0| |l@0|)))))))) false)))
(assert (forall ((SIZE@0 Int)(a@0 (Array Int Int))(b@0 (Array Int Int))(i@0 Int)(bo@0 Bool)(i@1 Int)) (=> (and (!inv1 |SIZE@0| |a@0| |b@0| |i@0|) (= |i@1| (+ |i@0| 1)) (< |i@0| |SIZE@0|) (not |bo@0|)) (!inv1 |SIZE@0| |a@0| |b@0| |i@1|))))
(assert (forall ((SIZE@0 Int)(a@0 (Array Int Int))(b@0 (Array Int Int))(i@0 Int)(bo@0 Bool)(i@1 Int)(k@0 Int)(b@1 (Array Int Int))(a@1 (Array Int Int))) (=> (and (!inv1 |SIZE@0| |a@1| |b@1| |i@0|) (= |i@1| (+ |i@0| 1)) (< |i@0| |SIZE@0|) |bo@0| (= |a@0| (store |a@1| |i@0| |k@0|)) (= |b@0| (store |b@1| |i@0| (* |k@0| |k@0|)))) (!inv1 |SIZE@0| |a@0| |b@0| |i@1|))))
(check-sat)